c Maximum weighted clique instances generated from exactcolors.
c cutoff: 93368854.
c A clique of value > scalef (93368854) defines an improving stable sets for coloring.
p edge 23 182
e 1 3
e 1 5
e 1 6
e 1 8
e 1 10
e 1 11
e 1 12
e 1 14
e 1 16
e 1 17
e 1 19
e 1 21
e 1 22
e 1 23
e 2 4
e 2 5
e 2 7
e 2 9
e 2 10
e 2 11
e 2 13
e 2 15
e 2 16
e 2 18
e 2 20
e 2 21
e 2 22
e 2 23
e 3 4
e 3 6
e 3 8
e 3 9
e 3 11
e 3 12
e 3 14
e 3 15
e 3 17
e 3 19
e 3 20
e 3 22
e 3 23
e 4 7
e 4 8
e 4 9
e 4 11
e 4 13
e 4 14
e 4 15
e 4 18
e 4 19
e 4 20
e 4 22
e 4 23
e 5 6
e 5 7
e 5 10
e 5 11
e 5 12
e 5 13
e 5 16
e 5 17
e 5 18
e 5 21
e 5 22
e 5 23
e 6 7
e 6 8
e 6 9
e 6 10
e 6 12
e 6 14
e 6 16
e 6 17
e 6 18
e 6 19
e 6 20
e 6 21
e 6 23
e 7 8
e 7 9
e 7 10
e 7 13
e 7 15
e 7 16
e 7 17
e 7 18
e 7 19
e 7 20
e 7 21
e 7 23
e 8 9
e 8 10
e 8 12
e 8 14
e 8 15
e 8 17
e 8 18
e 8 19
e 8 20
e 8 21
e 8 23
e 9 10
e 9 13
e 9 14
e 9 15
e 9 17
e 9 18
e 9 19
e 9 20
e 9 21
e 9 23
e 10 12
e 10 13
e 10 16
e 10 17
e 10 18
e 10 19
e 10 20
e 10 21
e 10 23
e 11 12
e 11 13
e 11 14
e 11 15
e 11 16
e 11 22
e 11 23
e 12 13
e 12 14
e 12 15
e 12 16
e 12 17
e 12 18
e 12 19
e 12 20
e 12 21
e 12 22
e 13 14
e 13 15
e 13 16
e 13 17
e 13 18
e 13 19
e 13 20
e 13 21
e 13 22
e 14 15
e 14 16
e 14 17
e 14 18
e 14 19
e 14 20
e 14 21
e 14 22
e 15 16
e 15 17
e 15 18
e 15 19
e 15 20
e 15 21
e 15 22
e 16 17
e 16 18
e 16 19
e 16 20
e 16 21
e 16 22
e 17 18
e 17 19
e 17 20
e 17 21
e 17 22
e 18 19
e 18 20
e 18 21
e 18 22
e 19 20
e 19 21
e 19 22
e 20 21
e 20 22
e 21 22
n 1 18351809
n 2 18351809
n 3 18351809
n 4 18351809
n 5 18351809
n 6 12234539
n 7 12234539
n 8 12234539
n 9 12234539
n 10 12234539
n 11 24469078
n 12 9658846
n 13 9658846
n 14 9658846
n 15 9658846
n 16 9658846
n 17 6439231
n 18 6439231
n 19 6439231
n 20 6439231
n 21 6439231
n 22 12878462
n 23 32196156
